Maximize
  - 2.832752622208 edge_0_1_0_0 - 3.6292566279626 edge_0_2_0_0
   + 0.2255783803962 edge_0_3_0_0 - 3.2976273617679 edge_0_4_0_0
   - 1.461689110335 edge_0_5_0_0 - 3.0864192592592 edge_0_7_0_0
   - 4.4217594761874 edge_0_9_0_0 - 4.59095 edge_0_12_0_0
   - 0.9753388935510499 edge_0_13_0_0 - 3.92801712136 edge_0_16_0_0
   + 0.226031002391494 edge_1_2_0_0 + 1.263177352316524 edge_1_3_0_0
   - 0.0751316451342717 edge_1_4_0_0 - 0.0420083094961787 edge_1_5_0_0
   + 0.00234255550316921 edge_1_6_0_0 + 0.0452230793124744 edge_1_7_0_0
   - 1.365076193000028 edge_1_9_0_0 + 0.3383016518010097 edge_2_1_0_0
   + 0.9042770981371755 edge_2_3_0_0 + 0.7542990580899374 edge_2_4_0_0
   + 1.416130594474472 edge_2_5_0_0 - 0.0285911815820239 edge_2_6_0_0
   + 0.5217627026269213 edge_2_7_0_0 - 0.257447145571145 edge_2_8_0_0
   - 0.2630703915700817 edge_2_9_0_0 + 0.4803286703985359 edge_2_10_0_0
   + 0.2557674495406557 edge_2_11_0_0 - 0.6617138747807652 edge_2_12_0_0
   + 0.00924785215314404 edge_2_13_0_0 - 1.234091763599485 edge_2_15_0_0
   - 1.136943283173949 edge_2_16_0_0 + 1.2973810702752 edge_2_17_0_0
   + 2.504506210755445 edge_3_1_0_0 + 2.890197070205497 edge_3_2_0_0
   + 2.772088785275944 edge_3_4_0_0 + 2.083507135154202 edge_3_5_0_0
   + 0.8743546241007017 edge_3_6_0_0 + 1.847472709579943 edge_3_7_0_0
   + 1.167409116717828 edge_3_8_0_0 + 2.951490769794849 edge_3_9_0_0
   + 2.580126733588663 edge_3_10_0_0 + 1.727493514758452 edge_3_11_0_0
   + 0.5952645081867274 edge_3_12_0_0 + 2.69669489912179 edge_3_13_0_0
   + 0.5787424267808081 edge_3_14_0_0 + 0.1571843324514503 edge_3_15_0_0
   + 0.3647928332365735 edge_3_16_0_0 + 4.987479924543077 edge_3_17_0_0
   + 0.1769583621931288 edge_4_1_0_0 + 0.5803484891383791 edge_4_2_0_0
   + 0.780720207130491 edge_4_3_0_0 + 1.605601865672585 edge_4_5_0_0
   + 0.7128752091893901 edge_4_6_0_0 + 1.095765101695712 edge_4_7_0_0
   + 0.328828669624689 edge_4_8_0_0 + 0.5895129852150051 edge_4_9_0_0
   + 0.897527901323651 edge_4_10_0_0 + 0.5362328981309604 edge_4_11_0_0
   - 0.1591289675099114 edge_4_12_0_0 - 0.2171746232095215 edge_4_13_0_0
   - 0.536789993761479 edge_4_14_0_0 - 0.8715350091792378 edge_4_15_0_0
   - 0.2655316957381673 edge_4_16_0_0 + 0.9680968116371693 edge_4_17_0_0
   + 0.6168051606994783 edge_5_1_0_0 + 1.451880564019214 edge_5_2_0_0
   + 0.923707938816448 edge_5_3_0_0 + 1.979493950399302 edge_5_4_0_0
   + 1.119063178137212 edge_5_6_0_0 + 2.1584476904585 edge_5_7_0_0
   + 1.540353887428511 edge_5_8_0_0 + 2.307001151658975 edge_5_9_0_0
   + 2.246419079304776 edge_5_10_0_0 + 2.963901926610345 edge_5_11_0_0
   + 2.4075174239536 edge_5_12_0_0 + 1.875277379866837 edge_5_13_0_0
   + 0.4249092029157546 edge_5_14_0_0 + 0.0428825270290625 edge_5_15_0_0
   + 0.7253854051130209 edge_5_16_0_0 + 3.928488611141004 edge_5_17_0_0
   - 0.125637837856155 edge_6_1_0_0 - 0.3099141284553458 edge_6_2_0_0
   + 0.3740083141363938 edge_6_4_0_0 + 0.5867970985850466 edge_6_5_0_0
   - 0.1626267366806653 edge_6_9_0_0 + 0.1657775578504966 edge_7_1_0_0
   + 0.6811993801081095 edge_7_2_0_0 + 0.1772547816897422 edge_7_3_0_0
   + 0.8961139852938119 edge_7_4_0_0 + 0.3859510320144301 edge_7_5_0_0
   + 3.5768500538062 edge_7_6_0_0 + 0.3200968983708 edge_7_8_0_0
   + 1.21354 edge_7_9_0_0 + 1.4059602966625 edge_7_10_0_0
   + 0.9953764964074401 edge_7_11_0_0 + 0.502619 edge_7_12_0_0
   + 0.96270668293461 edge_7_13_0_0 - 0.65354210300808 edge_7_15_0_0
   - 0.16102452953196 edge_7_16_0_0 + 1.1789592218864 edge_7_17_0_0
   - 0.8169752345415142 edge_8_1_0_0 + 0.4088826819579722 edge_8_5_0_0
   - 0.7416417303939 edge_8_7_0_0 + 1.802221259664259 edge_8_9_0_0
   + 0.2499587299932114 edge_8_10_0_0 + 0.2142280436219829 edge_8_11_0_0
   + 0.18702599900985 edge_8_12_0_0 - 0.8497565916140198 edge_8_15_0_0
   - 0.6610796316595821 edge_9_1_0_0 + 0.1868030704065943 edge_9_2_0_0
   + 0.2673021870078409 edge_9_3_0_0 + 0.0887006340321225 edge_9_4_0_0
   + 3.097102257225884 edge_9_5_0_0 + 1.205327869774 edge_9_6_0_0
   + 1.3837367066988 edge_9_7_0_0 + 3.5229489999165 edge_9_8_0_0
   + 2.735373810805 edge_9_10_0_0 + 2.2761062611 edge_9_11_0_0
   + 2.08833 edge_9_12_0_0 + 1.4551976646211 edge_9_13_0_0
   - 0.6892327172525863 edge_9_14_0_0 + 0.20880489373172 edge_9_15_0_0
   + 0.78102461519358 edge_9_16_0_0 + 1.70099887734 edge_9_17_0_0
   - 1.489369742899811 edge_10_1_0_0 - 1.152297657363811 edge_10_4_0_0
   - 0.8273517412248275 edge_10_5_0_0 - 1.0886060623689 edge_10_6_0_0
   - 1.579107274152564 edge_10_7_0_0 - 0.2826314008891402 edge_10_8_0_0
   - 0.5808411033964045 edge_10_9_0_0 + 0.5410516197581716 edge_10_11_0_0
   + 0.7069845560710941 edge_10_12_0_0 + 0.2335268558596841 edge_10_13_0_0
   - 0.501416108212745 edge_10_14_0_0 - 1.280248775863996 edge_11_8_0_0
   + 0.1807306714564487 edge_11_10_0_0 + 0.23595268120947 edge_11_12_0_0
   - 0.1777735240096174 edge_11_13_0_0 - 0.7054730975888787 edge_11_14_0_0
   - 0.3977412215381437 edge_11_15_0_0 - 1.132027238728807 edge_11_16_0_0
   - 1.6872433619256 edge_12_2_0_0 - 1.385458461416 edge_12_3_0_0
   - 1.35844 edge_12_7_0_0 - 0.18692843767515 edge_12_8_0_0
   - 0.276878 edge_12_9_0_0 - 0.2607497314576 edge_12_10_0_0
   + 0.2406937600688735 edge_12_11_0_0 + 0.947093057757 edge_12_13_0_0
   + 0.1073100456471969 edge_12_14_0_0 + 0.21846883999657 edge_12_15_0_0
   + 0.88223824405656 edge_12_16_0_0 + 0.927718 edge_12_17_0_0
   + 0.5714739695213386 edge_13_1_0_0 + 0.2593549230269447 edge_13_2_0_0
   + 0.1132192298971578 edge_13_3_0_0 + 0.8445936339573088 edge_13_4_0_0
   + 0.9468728920059915 edge_13_5_0_0 + 0.1357243824336244 edge_13_6_0_0
   + 1.0569284093981 edge_13_7_0_0 + 0.8684966678724971 edge_13_8_0_0
   + 0.9029922926442201 edge_13_9_0_0 + 1.319753233018856 edge_13_10_0_0
   + 1.102413923571924 edge_13_11_0_0 + 1.9646055993354 edge_13_12_0_0
   + 3.104891026397122 edge_13_14_0_0 + 1.216541716218741 edge_13_15_0_0
   + 2.128257135268964 edge_13_16_0_0 + 3.522991557810331 edge_13_17_0_0
   - 0.633680412146773 edge_14_12_0_0 + 0.3884087015475698 edge_14_15_0_0
   + 0.222802715643032 edge_14_16_0_0 + 0.3552452419553658 edge_14_17_0_0
   - 0.25511494578856 edge_15_12_0_0 + 0.7416429168681596 edge_15_14_0_0
   + 0.5601310728005457 edge_15_16_0_0 + 0.4609001202473199 edge_15_17_0_0
   - 0.3082568541397097 edge_16_1_0_0 + 0.096071695824357 edge_16_2_0_0
   - 0.2409631494726346 edge_16_3_0_0 - 0.5017419031637993 edge_16_4_0_0
   + 0.0106730280861245 edge_16_5_0_0 + 0.1474315675056929 edge_16_6_0_0
   - 0.39240899988306 edge_16_7_0_0 + 0.2530436987213953 edge_16_8_0_0
   - 0.1282616007096238 edge_16_9_0_0 + 0.5979898969708231 edge_16_10_0_0
   + 0.1536124420181189 edge_16_11_0_0 + 0.71477014835816 edge_16_12_0_0
   + 1.012187085906063 edge_16_13_0_0 + 0.6843399628855493 edge_16_14_0_0
   + 3.120631299452877 edge_16_15_0_0 + 1.6093672999368 edge_16_17_0_0
   - 0.7370555250866201 edge_17_15_0_0 - 0.3115670388868 edge_17_16_0_0
Subject To
 one_parent_1: edge_0_1_0_0 + edge_2_1_0_0 + edge_3_1_0_0 + edge_4_1_0_0
   + edge_5_1_0_0 + edge_6_1_0_0 + edge_7_1_0_0 + edge_8_1_0_0
   + edge_9_1_0_0 + edge_10_1_0_0 + edge_13_1_0_0 + edge_16_1_0_0 = 1
 consume_one_flow_unit_1: flow_0_1_0_0 - flow_1_2_0_0 - flow_1_3_0_0
   - flow_1_4_0_0 - flow_1_5_0_0 - flow_1_6_0_0 - flow_1_7_0_0
   - flow_1_9_0_0 + flow_2_1_0_0 + flow_3_1_0_0 + flow_4_1_0_0
   + flow_5_1_0_0 + flow_6_1_0_0 + flow_7_1_0_0 + flow_8_1_0_0
   + flow_9_1_0_0 + flow_10_1_0_0 + flow_13_1_0_0 + flow_16_1_0_0 = 1
 one_parent_2: edge_0_2_0_0 + edge_1_2_0_0 + edge_3_2_0_0 + edge_4_2_0_0
   + edge_5_2_0_0 + edge_6_2_0_0 + edge_7_2_0_0 + edge_9_2_0_0
   + edge_12_2_0_0 + edge_13_2_0_0 + edge_16_2_0_0 = 1
 consume_one_flow_unit_2: flow_0_2_0_0 + flow_1_2_0_0 - flow_2_1_0_0
   - flow_2_3_0_0 - flow_2_4_0_0 - flow_2_5_0_0 - flow_2_6_0_0
   - flow_2_7_0_0 - flow_2_8_0_0 - flow_2_9_0_0 - flow_2_10_0_0
   - flow_2_11_0_0 - flow_2_12_0_0 - flow_2_13_0_0 - flow_2_15_0_0
   - flow_2_16_0_0 - flow_2_17_0_0 + flow_3_2_0_0 + flow_4_2_0_0
   + flow_5_2_0_0 + flow_6_2_0_0 + flow_7_2_0_0 + flow_9_2_0_0
   + flow_12_2_0_0 + flow_13_2_0_0 + flow_16_2_0_0 = 1
 one_parent_3: edge_0_3_0_0 + edge_1_3_0_0 + edge_2_3_0_0 + edge_4_3_0_0
   + edge_5_3_0_0 + edge_7_3_0_0 + edge_9_3_0_0 + edge_12_3_0_0
   + edge_13_3_0_0 + edge_16_3_0_0 = 1
 consume_one_flow_unit_3: flow_0_3_0_0 + flow_1_3_0_0 + flow_2_3_0_0
   - flow_3_1_0_0 - flow_3_2_0_0 - flow_3_4_0_0 - flow_3_5_0_0
   - flow_3_6_0_0 - flow_3_7_0_0 - flow_3_8_0_0 - flow_3_9_0_0
   - flow_3_10_0_0 - flow_3_11_0_0 - flow_3_12_0_0 - flow_3_13_0_0
   - flow_3_14_0_0 - flow_3_15_0_0 - flow_3_16_0_0 - flow_3_17_0_0
   + flow_4_3_0_0 + flow_5_3_0_0 + flow_7_3_0_0 + flow_9_3_0_0
   + flow_12_3_0_0 + flow_13_3_0_0 + flow_16_3_0_0 = 1
 one_parent_4: edge_0_4_0_0 + edge_1_4_0_0 + edge_2_4_0_0 + edge_3_4_0_0
   + edge_5_4_0_0 + edge_6_4_0_0 + edge_7_4_0_0 + edge_9_4_0_0
   + edge_10_4_0_0 + edge_13_4_0_0 + edge_16_4_0_0 = 1
 consume_one_flow_unit_4: flow_0_4_0_0 + flow_1_4_0_0 + flow_2_4_0_0
   + flow_3_4_0_0 - flow_4_1_0_0 - flow_4_2_0_0 - flow_4_3_0_0
   - flow_4_5_0_0 - flow_4_6_0_0 - flow_4_7_0_0 - flow_4_8_0_0
   - flow_4_9_0_0 - flow_4_10_0_0 - flow_4_11_0_0 - flow_4_12_0_0
   - flow_4_13_0_0 - flow_4_14_0_0 - flow_4_15_0_0 - flow_4_16_0_0
   - flow_4_17_0_0 + flow_5_4_0_0 + flow_6_4_0_0 + flow_7_4_0_0
   + flow_9_4_0_0 + flow_10_4_0_0 + flow_13_4_0_0 + flow_16_4_0_0 = 1
 one_parent_5: edge_0_5_0_0 + edge_1_5_0_0 + edge_2_5_0_0 + edge_3_5_0_0
   + edge_4_5_0_0 + edge_6_5_0_0 + edge_7_5_0_0 + edge_8_5_0_0
   + edge_9_5_0_0 + edge_10_5_0_0 + edge_13_5_0_0 + edge_16_5_0_0 = 1
 consume_one_flow_unit_5: flow_0_5_0_0 + flow_1_5_0_0 + flow_2_5_0_0
   + flow_3_5_0_0 + flow_4_5_0_0 - flow_5_1_0_0 - flow_5_2_0_0
   - flow_5_3_0_0 - flow_5_4_0_0 - flow_5_6_0_0 - flow_5_7_0_0
   - flow_5_8_0_0 - flow_5_9_0_0 - flow_5_10_0_0 - flow_5_11_0_0
   - flow_5_12_0_0 - flow_5_13_0_0 - flow_5_14_0_0 - flow_5_15_0_0
   - flow_5_16_0_0 - flow_5_17_0_0 + flow_6_5_0_0 + flow_7_5_0_0
   + flow_8_5_0_0 + flow_9_5_0_0 + flow_10_5_0_0 + flow_13_5_0_0
   + flow_16_5_0_0 = 1
 one_parent_6: edge_1_6_0_0 + edge_2_6_0_0 + edge_3_6_0_0 + edge_4_6_0_0
   + edge_5_6_0_0 + edge_7_6_0_0 + edge_9_6_0_0 + edge_10_6_0_0
   + edge_13_6_0_0 + edge_16_6_0_0 = 1
 consume_one_flow_unit_6: flow_1_6_0_0 + flow_2_6_0_0 + flow_3_6_0_0
   + flow_4_6_0_0 + flow_5_6_0_0 - flow_6_1_0_0 - flow_6_2_0_0
   - flow_6_4_0_0 - flow_6_5_0_0 - flow_6_9_0_0 + flow_7_6_0_0
   + flow_9_6_0_0 + flow_10_6_0_0 + flow_13_6_0_0 + flow_16_6_0_0 = 1
 one_parent_7: edge_0_7_0_0 + edge_1_7_0_0 + edge_2_7_0_0 + edge_3_7_0_0
   + edge_4_7_0_0 + edge_5_7_0_0 + edge_8_7_0_0 + edge_9_7_0_0
   + edge_10_7_0_0 + edge_12_7_0_0 + edge_13_7_0_0 + edge_16_7_0_0 = 1
 consume_one_flow_unit_7: flow_0_7_0_0 + flow_1_7_0_0 + flow_2_7_0_0
   + flow_3_7_0_0 + flow_4_7_0_0 + flow_5_7_0_0 - flow_7_1_0_0
   - flow_7_2_0_0 - flow_7_3_0_0 - flow_7_4_0_0 - flow_7_5_0_0
   - flow_7_6_0_0 - flow_7_8_0_0 - flow_7_9_0_0 - flow_7_10_0_0
   - flow_7_11_0_0 - flow_7_12_0_0 - flow_7_13_0_0 - flow_7_15_0_0
   - flow_7_16_0_0 - flow_7_17_0_0 + flow_8_7_0_0 + flow_9_7_0_0
   + flow_10_7_0_0 + flow_12_7_0_0 + flow_13_7_0_0 + flow_16_7_0_0 = 1
 one_parent_8: edge_2_8_0_0 + edge_3_8_0_0 + edge_4_8_0_0 + edge_5_8_0_0
   + edge_7_8_0_0 + edge_9_8_0_0 + edge_10_8_0_0 + edge_11_8_0_0
   + edge_12_8_0_0 + edge_13_8_0_0 + edge_16_8_0_0 = 1
 consume_one_flow_unit_8: flow_2_8_0_0 + flow_3_8_0_0 + flow_4_8_0_0
   + flow_5_8_0_0 + flow_7_8_0_0 - flow_8_1_0_0 - flow_8_5_0_0
   - flow_8_7_0_0 - flow_8_9_0_0 - flow_8_10_0_0 - flow_8_11_0_0
   - flow_8_12_0_0 - flow_8_15_0_0 + flow_9_8_0_0 + flow_10_8_0_0
   + flow_11_8_0_0 + flow_12_8_0_0 + flow_13_8_0_0 + flow_16_8_0_0 = 1
 one_parent_9: edge_0_9_0_0 + edge_1_9_0_0 + edge_2_9_0_0 + edge_3_9_0_0
   + edge_4_9_0_0 + edge_5_9_0_0 + edge_6_9_0_0 + edge_7_9_0_0
   + edge_8_9_0_0 + edge_10_9_0_0 + edge_12_9_0_0 + edge_13_9_0_0
   + edge_16_9_0_0 = 1
 consume_one_flow_unit_9: flow_0_9_0_0 + flow_1_9_0_0 + flow_2_9_0_0
   + flow_3_9_0_0 + flow_4_9_0_0 + flow_5_9_0_0 + flow_6_9_0_0
   + flow_7_9_0_0 + flow_8_9_0_0 - flow_9_1_0_0 - flow_9_2_0_0
   - flow_9_3_0_0 - flow_9_4_0_0 - flow_9_5_0_0 - flow_9_6_0_0
   - flow_9_7_0_0 - flow_9_8_0_0 - flow_9_10_0_0 - flow_9_11_0_0
   - flow_9_12_0_0 - flow_9_13_0_0 - flow_9_14_0_0 - flow_9_15_0_0
   - flow_9_16_0_0 - flow_9_17_0_0 + flow_10_9_0_0 + flow_12_9_0_0
   + flow_13_9_0_0 + flow_16_9_0_0 = 1
 one_parent_10: edge_2_10_0_0 + edge_3_10_0_0 + edge_4_10_0_0
   + edge_5_10_0_0 + edge_7_10_0_0 + edge_8_10_0_0 + edge_9_10_0_0
   + edge_11_10_0_0 + edge_12_10_0_0 + edge_13_10_0_0 + edge_16_10_0_0 = 1
 consume_one_flow_unit_10: flow_2_10_0_0 + flow_3_10_0_0 + flow_4_10_0_0
   + flow_5_10_0_0 + flow_7_10_0_0 + flow_8_10_0_0 + flow_9_10_0_0
   - flow_10_1_0_0 - flow_10_4_0_0 - flow_10_5_0_0 - flow_10_6_0_0
   - flow_10_7_0_0 - flow_10_8_0_0 - flow_10_9_0_0 - flow_10_11_0_0
   - flow_10_12_0_0 - flow_10_13_0_0 - flow_10_14_0_0 + flow_11_10_0_0
   + flow_12_10_0_0 + flow_13_10_0_0 + flow_16_10_0_0 = 1
 one_parent_11: edge_2_11_0_0 + edge_3_11_0_0 + edge_4_11_0_0
   + edge_5_11_0_0 + edge_7_11_0_0 + edge_8_11_0_0 + edge_9_11_0_0
   + edge_10_11_0_0 + edge_12_11_0_0 + edge_13_11_0_0 + edge_16_11_0_0 = 1
 consume_one_flow_unit_11: flow_2_11_0_0 + flow_3_11_0_0 + flow_4_11_0_0
   + flow_5_11_0_0 + flow_7_11_0_0 + flow_8_11_0_0 + flow_9_11_0_0
   + flow_10_11_0_0 - flow_11_8_0_0 - flow_11_10_0_0 - flow_11_12_0_0
   - flow_11_13_0_0 - flow_11_14_0_0 - flow_11_15_0_0 - flow_11_16_0_0
   + flow_12_11_0_0 + flow_13_11_0_0 + flow_16_11_0_0 = 1
 one_parent_12: edge_0_12_0_0 + edge_2_12_0_0 + edge_3_12_0_0
   + edge_4_12_0_0 + edge_5_12_0_0 + edge_7_12_0_0 + edge_8_12_0_0
   + edge_9_12_0_0 + edge_10_12_0_0 + edge_11_12_0_0 + edge_13_12_0_0
   + edge_14_12_0_0 + edge_15_12_0_0 + edge_16_12_0_0 = 1
 consume_one_flow_unit_12: flow_0_12_0_0 + flow_2_12_0_0 + flow_3_12_0_0
   + flow_4_12_0_0 + flow_5_12_0_0 + flow_7_12_0_0 + flow_8_12_0_0
   + flow_9_12_0_0 + flow_10_12_0_0 + flow_11_12_0_0 - flow_12_2_0_0
   - flow_12_3_0_0 - flow_12_7_0_0 - flow_12_8_0_0 - flow_12_9_0_0
   - flow_12_10_0_0 - flow_12_11_0_0 - flow_12_13_0_0 - flow_12_14_0_0
   - flow_12_15_0_0 - flow_12_16_0_0 - flow_12_17_0_0 + flow_13_12_0_0
   + flow_14_12_0_0 + flow_15_12_0_0 + flow_16_12_0_0 = 1
 one_parent_13: edge_0_13_0_0 + edge_2_13_0_0 + edge_3_13_0_0
   + edge_4_13_0_0 + edge_5_13_0_0 + edge_7_13_0_0 + edge_9_13_0_0
   + edge_10_13_0_0 + edge_11_13_0_0 + edge_12_13_0_0 + edge_16_13_0_0 = 1
 consume_one_flow_unit_13: flow_0_13_0_0 + flow_2_13_0_0 + flow_3_13_0_0
   + flow_4_13_0_0 + flow_5_13_0_0 + flow_7_13_0_0 + flow_9_13_0_0
   + flow_10_13_0_0 + flow_11_13_0_0 + flow_12_13_0_0 - flow_13_1_0_0
   - flow_13_2_0_0 - flow_13_3_0_0 - flow_13_4_0_0 - flow_13_5_0_0
   - flow_13_6_0_0 - flow_13_7_0_0 - flow_13_8_0_0 - flow_13_9_0_0
   - flow_13_10_0_0 - flow_13_11_0_0 - flow_13_12_0_0 - flow_13_14_0_0
   - flow_13_15_0_0 - flow_13_16_0_0 - flow_13_17_0_0 + flow_16_13_0_0 = 1
 one_parent_14: edge_3_14_0_0 + edge_4_14_0_0 + edge_5_14_0_0
   + edge_9_14_0_0 + edge_10_14_0_0 + edge_11_14_0_0 + edge_12_14_0_0
   + edge_13_14_0_0 + edge_15_14_0_0 + edge_16_14_0_0 = 1
 consume_one_flow_unit_14: flow_3_14_0_0 + flow_4_14_0_0 + flow_5_14_0_0
   + flow_9_14_0_0 + flow_10_14_0_0 + flow_11_14_0_0 + flow_12_14_0_0
   + flow_13_14_0_0 - flow_14_12_0_0 - flow_14_15_0_0 - flow_14_16_0_0
   - flow_14_17_0_0 + flow_15_14_0_0 + flow_16_14_0_0 = 1
 one_parent_15: edge_2_15_0_0 + edge_3_15_0_0 + edge_4_15_0_0
   + edge_5_15_0_0 + edge_7_15_0_0 + edge_8_15_0_0 + edge_9_15_0_0
   + edge_11_15_0_0 + edge_12_15_0_0 + edge_13_15_0_0 + edge_14_15_0_0
   + edge_16_15_0_0 + edge_17_15_0_0 = 1
 consume_one_flow_unit_15: flow_2_15_0_0 + flow_3_15_0_0 + flow_4_15_0_0
   + flow_5_15_0_0 + flow_7_15_0_0 + flow_8_15_0_0 + flow_9_15_0_0
   + flow_11_15_0_0 + flow_12_15_0_0 + flow_13_15_0_0 + flow_14_15_0_0
   - flow_15_12_0_0 - flow_15_14_0_0 - flow_15_16_0_0 - flow_15_17_0_0
   + flow_16_15_0_0 + flow_17_15_0_0 = 1
 one_parent_16: edge_0_16_0_0 + edge_2_16_0_0 + edge_3_16_0_0
   + edge_4_16_0_0 + edge_5_16_0_0 + edge_7_16_0_0 + edge_9_16_0_0
   + edge_11_16_0_0 + edge_12_16_0_0 + edge_13_16_0_0 + edge_14_16_0_0
   + edge_15_16_0_0 + edge_17_16_0_0 = 1
 consume_one_flow_unit_16: flow_0_16_0_0 + flow_2_16_0_0 + flow_3_16_0_0
   + flow_4_16_0_0 + flow_5_16_0_0 + flow_7_16_0_0 + flow_9_16_0_0
   + flow_11_16_0_0 + flow_12_16_0_0 + flow_13_16_0_0 + flow_14_16_0_0
   + flow_15_16_0_0 - flow_16_1_0_0 - flow_16_2_0_0 - flow_16_3_0_0
   - flow_16_4_0_0 - flow_16_5_0_0 - flow_16_6_0_0 - flow_16_7_0_0
   - flow_16_8_0_0 - flow_16_9_0_0 - flow_16_10_0_0 - flow_16_11_0_0
   - flow_16_12_0_0 - flow_16_13_0_0 - flow_16_14_0_0 - flow_16_15_0_0
   - flow_16_17_0_0 + flow_17_16_0_0 = 1
 one_parent_17: edge_2_17_0_0 + edge_3_17_0_0 + edge_4_17_0_0
   + edge_5_17_0_0 + edge_7_17_0_0 + edge_9_17_0_0 + edge_12_17_0_0
   + edge_13_17_0_0 + edge_14_17_0_0 + edge_15_17_0_0 + edge_16_17_0_0 = 1
 consume_one_flow_unit_17: flow_2_17_0_0 + flow_3_17_0_0 + flow_4_17_0_0
   + flow_5_17_0_0 + flow_7_17_0_0 + flow_9_17_0_0 + flow_12_17_0_0
   + flow_13_17_0_0 + flow_14_17_0_0 + flow_15_17_0_0 + flow_16_17_0_0
   - flow_17_15_0_0 - flow_17_16_0_0 = 1
 root_flow: flow_0_1_0_0 + flow_0_2_0_0 + flow_0_3_0_0 + flow_0_4_0_0
   + flow_0_5_0_0 + flow_0_7_0_0 + flow_0_9_0_0 + flow_0_12_0_0
   + flow_0_13_0_0 + flow_0_16_0_0 = 17
 inactive_no_flow_0_1_0_0: flow_0_1_0_0 - 1000 edge_0_1_0_0 <= 0
 inactive_no_flow_0_2_0_0: flow_0_2_0_0 - 1000 edge_0_2_0_0 <= 0
 inactive_no_flow_0_3_0_0: flow_0_3_0_0 - 1000 edge_0_3_0_0 <= 0
 inactive_no_flow_0_4_0_0: flow_0_4_0_0 - 1000 edge_0_4_0_0 <= 0
 inactive_no_flow_0_5_0_0: flow_0_5_0_0 - 1000 edge_0_5_0_0 <= 0
 inactive_no_flow_0_7_0_0: flow_0_7_0_0 - 1000 edge_0_7_0_0 <= 0
 inactive_no_flow_0_9_0_0: flow_0_9_0_0 - 1000 edge_0_9_0_0 <= 0
 inactive_no_flow_0_12_0_0: flow_0_12_0_0 - 1000 edge_0_12_0_0 <= 0
 inactive_no_flow_0_13_0_0: flow_0_13_0_0 - 1000 edge_0_13_0_0 <= 0
 inactive_no_flow_0_16_0_0: flow_0_16_0_0 - 1000 edge_0_16_0_0 <= 0
 inactive_no_flow_1_2_0_0: flow_1_2_0_0 - 1000 edge_1_2_0_0 <= 0
 inactive_no_flow_1_3_0_0: flow_1_3_0_0 - 1000 edge_1_3_0_0 <= 0
 inactive_no_flow_1_4_0_0: flow_1_4_0_0 - 1000 edge_1_4_0_0 <= 0
 inactive_no_flow_1_5_0_0: flow_1_5_0_0 - 1000 edge_1_5_0_0 <= 0
 inactive_no_flow_1_6_0_0: flow_1_6_0_0 - 1000 edge_1_6_0_0 <= 0
 inactive_no_flow_1_7_0_0: flow_1_7_0_0 - 1000 edge_1_7_0_0 <= 0
 inactive_no_flow_1_9_0_0: flow_1_9_0_0 - 1000 edge_1_9_0_0 <= 0
 inactive_no_flow_2_1_0_0: flow_2_1_0_0 - 1000 edge_2_1_0_0 <= 0
 inactive_no_flow_2_3_0_0: flow_2_3_0_0 - 1000 edge_2_3_0_0 <= 0
 inactive_no_flow_2_4_0_0: flow_2_4_0_0 - 1000 edge_2_4_0_0 <= 0
 inactive_no_flow_2_5_0_0: flow_2_5_0_0 - 1000 edge_2_5_0_0 <= 0
 inactive_no_flow_2_6_0_0: flow_2_6_0_0 - 1000 edge_2_6_0_0 <= 0
 inactive_no_flow_2_7_0_0: flow_2_7_0_0 - 1000 edge_2_7_0_0 <= 0
 inactive_no_flow_2_8_0_0: flow_2_8_0_0 - 1000 edge_2_8_0_0 <= 0
 inactive_no_flow_2_9_0_0: flow_2_9_0_0 - 1000 edge_2_9_0_0 <= 0
 inactive_no_flow_2_10_0_0: flow_2_10_0_0 - 1000 edge_2_10_0_0 <= 0
 inactive_no_flow_2_11_0_0: flow_2_11_0_0 - 1000 edge_2_11_0_0 <= 0
 inactive_no_flow_2_12_0_0: flow_2_12_0_0 - 1000 edge_2_12_0_0 <= 0
 inactive_no_flow_2_13_0_0: flow_2_13_0_0 - 1000 edge_2_13_0_0 <= 0
 inactive_no_flow_2_15_0_0: flow_2_15_0_0 - 1000 edge_2_15_0_0 <= 0
 inactive_no_flow_2_16_0_0: flow_2_16_0_0 - 1000 edge_2_16_0_0 <= 0
 inactive_no_flow_2_17_0_0: flow_2_17_0_0 - 1000 edge_2_17_0_0 <= 0
 inactive_no_flow_3_1_0_0: flow_3_1_0_0 - 1000 edge_3_1_0_0 <= 0
 inactive_no_flow_3_2_0_0: flow_3_2_0_0 - 1000 edge_3_2_0_0 <= 0
 inactive_no_flow_3_4_0_0: flow_3_4_0_0 - 1000 edge_3_4_0_0 <= 0
 inactive_no_flow_3_5_0_0: flow_3_5_0_0 - 1000 edge_3_5_0_0 <= 0
 inactive_no_flow_3_6_0_0: flow_3_6_0_0 - 1000 edge_3_6_0_0 <= 0
 inactive_no_flow_3_7_0_0: flow_3_7_0_0 - 1000 edge_3_7_0_0 <= 0
 inactive_no_flow_3_8_0_0: flow_3_8_0_0 - 1000 edge_3_8_0_0 <= 0
 inactive_no_flow_3_9_0_0: flow_3_9_0_0 - 1000 edge_3_9_0_0 <= 0
 inactive_no_flow_3_10_0_0: flow_3_10_0_0 - 1000 edge_3_10_0_0 <= 0
 inactive_no_flow_3_11_0_0: flow_3_11_0_0 - 1000 edge_3_11_0_0 <= 0
 inactive_no_flow_3_12_0_0: flow_3_12_0_0 - 1000 edge_3_12_0_0 <= 0
 inactive_no_flow_3_13_0_0: flow_3_13_0_0 - 1000 edge_3_13_0_0 <= 0
 inactive_no_flow_3_14_0_0: flow_3_14_0_0 - 1000 edge_3_14_0_0 <= 0
 inactive_no_flow_3_15_0_0: flow_3_15_0_0 - 1000 edge_3_15_0_0 <= 0
 inactive_no_flow_3_16_0_0: flow_3_16_0_0 - 1000 edge_3_16_0_0 <= 0
 inactive_no_flow_3_17_0_0: flow_3_17_0_0 - 1000 edge_3_17_0_0 <= 0
 inactive_no_flow_4_1_0_0: flow_4_1_0_0 - 1000 edge_4_1_0_0 <= 0
 inactive_no_flow_4_2_0_0: flow_4_2_0_0 - 1000 edge_4_2_0_0 <= 0
 inactive_no_flow_4_3_0_0: flow_4_3_0_0 - 1000 edge_4_3_0_0 <= 0
 inactive_no_flow_4_5_0_0: flow_4_5_0_0 - 1000 edge_4_5_0_0 <= 0
 inactive_no_flow_4_6_0_0: flow_4_6_0_0 - 1000 edge_4_6_0_0 <= 0
 inactive_no_flow_4_7_0_0: flow_4_7_0_0 - 1000 edge_4_7_0_0 <= 0
 inactive_no_flow_4_8_0_0: flow_4_8_0_0 - 1000 edge_4_8_0_0 <= 0
 inactive_no_flow_4_9_0_0: flow_4_9_0_0 - 1000 edge_4_9_0_0 <= 0
 inactive_no_flow_4_10_0_0: flow_4_10_0_0 - 1000 edge_4_10_0_0 <= 0
 inactive_no_flow_4_11_0_0: flow_4_11_0_0 - 1000 edge_4_11_0_0 <= 0
 inactive_no_flow_4_12_0_0: flow_4_12_0_0 - 1000 edge_4_12_0_0 <= 0
 inactive_no_flow_4_13_0_0: flow_4_13_0_0 - 1000 edge_4_13_0_0 <= 0
 inactive_no_flow_4_14_0_0: flow_4_14_0_0 - 1000 edge_4_14_0_0 <= 0
 inactive_no_flow_4_15_0_0: flow_4_15_0_0 - 1000 edge_4_15_0_0 <= 0
 inactive_no_flow_4_16_0_0: flow_4_16_0_0 - 1000 edge_4_16_0_0 <= 0
 inactive_no_flow_4_17_0_0: flow_4_17_0_0 - 1000 edge_4_17_0_0 <= 0
 inactive_no_flow_5_1_0_0: flow_5_1_0_0 - 1000 edge_5_1_0_0 <= 0
 inactive_no_flow_5_2_0_0: flow_5_2_0_0 - 1000 edge_5_2_0_0 <= 0
 inactive_no_flow_5_3_0_0: flow_5_3_0_0 - 1000 edge_5_3_0_0 <= 0
 inactive_no_flow_5_4_0_0: flow_5_4_0_0 - 1000 edge_5_4_0_0 <= 0
 inactive_no_flow_5_6_0_0: flow_5_6_0_0 - 1000 edge_5_6_0_0 <= 0
 inactive_no_flow_5_7_0_0: flow_5_7_0_0 - 1000 edge_5_7_0_0 <= 0
 inactive_no_flow_5_8_0_0: flow_5_8_0_0 - 1000 edge_5_8_0_0 <= 0
 inactive_no_flow_5_9_0_0: flow_5_9_0_0 - 1000 edge_5_9_0_0 <= 0
 inactive_no_flow_5_10_0_0: flow_5_10_0_0 - 1000 edge_5_10_0_0 <= 0
 inactive_no_flow_5_11_0_0: flow_5_11_0_0 - 1000 edge_5_11_0_0 <= 0
 inactive_no_flow_5_12_0_0: flow_5_12_0_0 - 1000 edge_5_12_0_0 <= 0
 inactive_no_flow_5_13_0_0: flow_5_13_0_0 - 1000 edge_5_13_0_0 <= 0
 inactive_no_flow_5_14_0_0: flow_5_14_0_0 - 1000 edge_5_14_0_0 <= 0
 inactive_no_flow_5_15_0_0: flow_5_15_0_0 - 1000 edge_5_15_0_0 <= 0
 inactive_no_flow_5_16_0_0: flow_5_16_0_0 - 1000 edge_5_16_0_0 <= 0
 inactive_no_flow_5_17_0_0: flow_5_17_0_0 - 1000 edge_5_17_0_0 <= 0
 inactive_no_flow_6_1_0_0: flow_6_1_0_0 - 1000 edge_6_1_0_0 <= 0
 inactive_no_flow_6_2_0_0: flow_6_2_0_0 - 1000 edge_6_2_0_0 <= 0
 inactive_no_flow_6_4_0_0: flow_6_4_0_0 - 1000 edge_6_4_0_0 <= 0
 inactive_no_flow_6_5_0_0: flow_6_5_0_0 - 1000 edge_6_5_0_0 <= 0
 inactive_no_flow_6_9_0_0: flow_6_9_0_0 - 1000 edge_6_9_0_0 <= 0
 inactive_no_flow_7_1_0_0: flow_7_1_0_0 - 1000 edge_7_1_0_0 <= 0
 inactive_no_flow_7_2_0_0: flow_7_2_0_0 - 1000 edge_7_2_0_0 <= 0
 inactive_no_flow_7_3_0_0: flow_7_3_0_0 - 1000 edge_7_3_0_0 <= 0
 inactive_no_flow_7_4_0_0: flow_7_4_0_0 - 1000 edge_7_4_0_0 <= 0
 inactive_no_flow_7_5_0_0: flow_7_5_0_0 - 1000 edge_7_5_0_0 <= 0
 inactive_no_flow_7_6_0_0: flow_7_6_0_0 - 1000 edge_7_6_0_0 <= 0
 inactive_no_flow_7_8_0_0: flow_7_8_0_0 - 1000 edge_7_8_0_0 <= 0
 inactive_no_flow_7_9_0_0: flow_7_9_0_0 - 1000 edge_7_9_0_0 <= 0
 inactive_no_flow_7_10_0_0: flow_7_10_0_0 - 1000 edge_7_10_0_0 <= 0
 inactive_no_flow_7_11_0_0: flow_7_11_0_0 - 1000 edge_7_11_0_0 <= 0
 inactive_no_flow_7_12_0_0: flow_7_12_0_0 - 1000 edge_7_12_0_0 <= 0
 inactive_no_flow_7_13_0_0: flow_7_13_0_0 - 1000 edge_7_13_0_0 <= 0
 inactive_no_flow_7_15_0_0: flow_7_15_0_0 - 1000 edge_7_15_0_0 <= 0
 inactive_no_flow_7_16_0_0: flow_7_16_0_0 - 1000 edge_7_16_0_0 <= 0
 inactive_no_flow_7_17_0_0: flow_7_17_0_0 - 1000 edge_7_17_0_0 <= 0
 inactive_no_flow_8_1_0_0: flow_8_1_0_0 - 1000 edge_8_1_0_0 <= 0
 inactive_no_flow_8_5_0_0: flow_8_5_0_0 - 1000 edge_8_5_0_0 <= 0
 inactive_no_flow_8_7_0_0: flow_8_7_0_0 - 1000 edge_8_7_0_0 <= 0
 inactive_no_flow_8_9_0_0: flow_8_9_0_0 - 1000 edge_8_9_0_0 <= 0
 inactive_no_flow_8_10_0_0: flow_8_10_0_0 - 1000 edge_8_10_0_0 <= 0
 inactive_no_flow_8_11_0_0: flow_8_11_0_0 - 1000 edge_8_11_0_0 <= 0
 inactive_no_flow_8_12_0_0: flow_8_12_0_0 - 1000 edge_8_12_0_0 <= 0
 inactive_no_flow_8_15_0_0: flow_8_15_0_0 - 1000 edge_8_15_0_0 <= 0
 inactive_no_flow_9_1_0_0: flow_9_1_0_0 - 1000 edge_9_1_0_0 <= 0
 inactive_no_flow_9_2_0_0: flow_9_2_0_0 - 1000 edge_9_2_0_0 <= 0
 inactive_no_flow_9_3_0_0: flow_9_3_0_0 - 1000 edge_9_3_0_0 <= 0
 inactive_no_flow_9_4_0_0: flow_9_4_0_0 - 1000 edge_9_4_0_0 <= 0
 inactive_no_flow_9_5_0_0: flow_9_5_0_0 - 1000 edge_9_5_0_0 <= 0
 inactive_no_flow_9_6_0_0: flow_9_6_0_0 - 1000 edge_9_6_0_0 <= 0
 inactive_no_flow_9_7_0_0: flow_9_7_0_0 - 1000 edge_9_7_0_0 <= 0
 inactive_no_flow_9_8_0_0: flow_9_8_0_0 - 1000 edge_9_8_0_0 <= 0
 inactive_no_flow_9_10_0_0: flow_9_10_0_0 - 1000 edge_9_10_0_0 <= 0
 inactive_no_flow_9_11_0_0: flow_9_11_0_0 - 1000 edge_9_11_0_0 <= 0
 inactive_no_flow_9_12_0_0: flow_9_12_0_0 - 1000 edge_9_12_0_0 <= 0
 inactive_no_flow_9_13_0_0: flow_9_13_0_0 - 1000 edge_9_13_0_0 <= 0
 inactive_no_flow_9_14_0_0: flow_9_14_0_0 - 1000 edge_9_14_0_0 <= 0
 inactive_no_flow_9_15_0_0: flow_9_15_0_0 - 1000 edge_9_15_0_0 <= 0
 inactive_no_flow_9_16_0_0: flow_9_16_0_0 - 1000 edge_9_16_0_0 <= 0
 inactive_no_flow_9_17_0_0: flow_9_17_0_0 - 1000 edge_9_17_0_0 <= 0
 inactive_no_flow_10_1_0_0: flow_10_1_0_0 - 1000 edge_10_1_0_0 <= 0
 inactive_no_flow_10_4_0_0: flow_10_4_0_0 - 1000 edge_10_4_0_0 <= 0
 inactive_no_flow_10_5_0_0: flow_10_5_0_0 - 1000 edge_10_5_0_0 <= 0
 inactive_no_flow_10_6_0_0: flow_10_6_0_0 - 1000 edge_10_6_0_0 <= 0
 inactive_no_flow_10_7_0_0: flow_10_7_0_0 - 1000 edge_10_7_0_0 <= 0
 inactive_no_flow_10_8_0_0: flow_10_8_0_0 - 1000 edge_10_8_0_0 <= 0
 inactive_no_flow_10_9_0_0: flow_10_9_0_0 - 1000 edge_10_9_0_0 <= 0
 inactive_no_flow_10_11_0_0: flow_10_11_0_0 - 1000 edge_10_11_0_0 <= 0
 inactive_no_flow_10_12_0_0: flow_10_12_0_0 - 1000 edge_10_12_0_0 <= 0
 inactive_no_flow_10_13_0_0: flow_10_13_0_0 - 1000 edge_10_13_0_0 <= 0
 inactive_no_flow_10_14_0_0: flow_10_14_0_0 - 1000 edge_10_14_0_0 <= 0
 inactive_no_flow_11_8_0_0: flow_11_8_0_0 - 1000 edge_11_8_0_0 <= 0
 inactive_no_flow_11_10_0_0: flow_11_10_0_0 - 1000 edge_11_10_0_0 <= 0
 inactive_no_flow_11_12_0_0: flow_11_12_0_0 - 1000 edge_11_12_0_0 <= 0
 inactive_no_flow_11_13_0_0: flow_11_13_0_0 - 1000 edge_11_13_0_0 <= 0
 inactive_no_flow_11_14_0_0: flow_11_14_0_0 - 1000 edge_11_14_0_0 <= 0
 inactive_no_flow_11_15_0_0: flow_11_15_0_0 - 1000 edge_11_15_0_0 <= 0
 inactive_no_flow_11_16_0_0: flow_11_16_0_0 - 1000 edge_11_16_0_0 <= 0
 inactive_no_flow_12_2_0_0: flow_12_2_0_0 - 1000 edge_12_2_0_0 <= 0
 inactive_no_flow_12_3_0_0: flow_12_3_0_0 - 1000 edge_12_3_0_0 <= 0
 inactive_no_flow_12_7_0_0: flow_12_7_0_0 - 1000 edge_12_7_0_0 <= 0
 inactive_no_flow_12_8_0_0: flow_12_8_0_0 - 1000 edge_12_8_0_0 <= 0
 inactive_no_flow_12_9_0_0: flow_12_9_0_0 - 1000 edge_12_9_0_0 <= 0
 inactive_no_flow_12_10_0_0: flow_12_10_0_0 - 1000 edge_12_10_0_0 <= 0
 inactive_no_flow_12_11_0_0: flow_12_11_0_0 - 1000 edge_12_11_0_0 <= 0
 inactive_no_flow_12_13_0_0: flow_12_13_0_0 - 1000 edge_12_13_0_0 <= 0
 inactive_no_flow_12_14_0_0: flow_12_14_0_0 - 1000 edge_12_14_0_0 <= 0
 inactive_no_flow_12_15_0_0: flow_12_15_0_0 - 1000 edge_12_15_0_0 <= 0
 inactive_no_flow_12_16_0_0: flow_12_16_0_0 - 1000 edge_12_16_0_0 <= 0
 inactive_no_flow_12_17_0_0: flow_12_17_0_0 - 1000 edge_12_17_0_0 <= 0
 inactive_no_flow_13_1_0_0: flow_13_1_0_0 - 1000 edge_13_1_0_0 <= 0
 inactive_no_flow_13_2_0_0: flow_13_2_0_0 - 1000 edge_13_2_0_0 <= 0
 inactive_no_flow_13_3_0_0: flow_13_3_0_0 - 1000 edge_13_3_0_0 <= 0
 inactive_no_flow_13_4_0_0: flow_13_4_0_0 - 1000 edge_13_4_0_0 <= 0
 inactive_no_flow_13_5_0_0: flow_13_5_0_0 - 1000 edge_13_5_0_0 <= 0
 inactive_no_flow_13_6_0_0: flow_13_6_0_0 - 1000 edge_13_6_0_0 <= 0
 inactive_no_flow_13_7_0_0: flow_13_7_0_0 - 1000 edge_13_7_0_0 <= 0
 inactive_no_flow_13_8_0_0: flow_13_8_0_0 - 1000 edge_13_8_0_0 <= 0
 inactive_no_flow_13_9_0_0: flow_13_9_0_0 - 1000 edge_13_9_0_0 <= 0
 inactive_no_flow_13_10_0_0: flow_13_10_0_0 - 1000 edge_13_10_0_0 <= 0
 inactive_no_flow_13_11_0_0: flow_13_11_0_0 - 1000 edge_13_11_0_0 <= 0
 inactive_no_flow_13_12_0_0: flow_13_12_0_0 - 1000 edge_13_12_0_0 <= 0
 inactive_no_flow_13_14_0_0: flow_13_14_0_0 - 1000 edge_13_14_0_0 <= 0
 inactive_no_flow_13_15_0_0: flow_13_15_0_0 - 1000 edge_13_15_0_0 <= 0
 inactive_no_flow_13_16_0_0: flow_13_16_0_0 - 1000 edge_13_16_0_0 <= 0
 inactive_no_flow_13_17_0_0: flow_13_17_0_0 - 1000 edge_13_17_0_0 <= 0
 inactive_no_flow_14_12_0_0: flow_14_12_0_0 - 1000 edge_14_12_0_0 <= 0
 inactive_no_flow_14_15_0_0: flow_14_15_0_0 - 1000 edge_14_15_0_0 <= 0
 inactive_no_flow_14_16_0_0: flow_14_16_0_0 - 1000 edge_14_16_0_0 <= 0
 inactive_no_flow_14_17_0_0: flow_14_17_0_0 - 1000 edge_14_17_0_0 <= 0
 inactive_no_flow_15_12_0_0: flow_15_12_0_0 - 1000 edge_15_12_0_0 <= 0
 inactive_no_flow_15_14_0_0: flow_15_14_0_0 - 1000 edge_15_14_0_0 <= 0
 inactive_no_flow_15_16_0_0: flow_15_16_0_0 - 1000 edge_15_16_0_0 <= 0
 inactive_no_flow_15_17_0_0: flow_15_17_0_0 - 1000 edge_15_17_0_0 <= 0
 inactive_no_flow_16_1_0_0: flow_16_1_0_0 - 1000 edge_16_1_0_0 <= 0
 inactive_no_flow_16_2_0_0: flow_16_2_0_0 - 1000 edge_16_2_0_0 <= 0
 inactive_no_flow_16_3_0_0: flow_16_3_0_0 - 1000 edge_16_3_0_0 <= 0
 inactive_no_flow_16_4_0_0: flow_16_4_0_0 - 1000 edge_16_4_0_0 <= 0
 inactive_no_flow_16_5_0_0: flow_16_5_0_0 - 1000 edge_16_5_0_0 <= 0
 inactive_no_flow_16_6_0_0: flow_16_6_0_0 - 1000 edge_16_6_0_0 <= 0
 inactive_no_flow_16_7_0_0: flow_16_7_0_0 - 1000 edge_16_7_0_0 <= 0
 inactive_no_flow_16_8_0_0: flow_16_8_0_0 - 1000 edge_16_8_0_0 <= 0
 inactive_no_flow_16_9_0_0: flow_16_9_0_0 - 1000 edge_16_9_0_0 <= 0
 inactive_no_flow_16_10_0_0: flow_16_10_0_0 - 1000 edge_16_10_0_0 <= 0
 inactive_no_flow_16_11_0_0: flow_16_11_0_0 - 1000 edge_16_11_0_0 <= 0
 inactive_no_flow_16_12_0_0: flow_16_12_0_0 - 1000 edge_16_12_0_0 <= 0
 inactive_no_flow_16_13_0_0: flow_16_13_0_0 - 1000 edge_16_13_0_0 <= 0
 inactive_no_flow_16_14_0_0: flow_16_14_0_0 - 1000 edge_16_14_0_0 <= 0
 inactive_no_flow_16_15_0_0: flow_16_15_0_0 - 1000 edge_16_15_0_0 <= 0
 inactive_no_flow_16_17_0_0: flow_16_17_0_0 - 1000 edge_16_17_0_0 <= 0
 inactive_no_flow_17_15_0_0: flow_17_15_0_0 - 1000 edge_17_15_0_0 <= 0
 inactive_no_flow_17_16_0_0: flow_17_16_0_0 - 1000 edge_17_16_0_0 <= 0
Bounds
Binaries
 edge_0_1_0_0 edge_0_2_0_0 edge_0_3_0_0 edge_0_4_0_0 edge_0_5_0_0
 edge_0_7_0_0 edge_0_9_0_0 edge_0_12_0_0 edge_0_13_0_0 edge_0_16_0_0
 edge_1_2_0_0 edge_1_3_0_0 edge_1_4_0_0 edge_1_5_0_0 edge_1_6_0_0
 edge_1_7_0_0 edge_1_9_0_0 edge_2_1_0_0 edge_2_3_0_0 edge_2_4_0_0
 edge_2_5_0_0 edge_2_6_0_0 edge_2_7_0_0 edge_2_8_0_0 edge_2_9_0_0
 edge_2_10_0_0 edge_2_11_0_0 edge_2_12_0_0 edge_2_13_0_0 edge_2_15_0_0
 edge_2_16_0_0 edge_2_17_0_0 edge_3_1_0_0 edge_3_2_0_0 edge_3_4_0_0
 edge_3_5_0_0 edge_3_6_0_0 edge_3_7_0_0 edge_3_8_0_0 edge_3_9_0_0
 edge_3_10_0_0 edge_3_11_0_0 edge_3_12_0_0 edge_3_13_0_0 edge_3_14_0_0
 edge_3_15_0_0 edge_3_16_0_0 edge_3_17_0_0 edge_4_1_0_0 edge_4_2_0_0
 edge_4_3_0_0 edge_4_5_0_0 edge_4_6_0_0 edge_4_7_0_0 edge_4_8_0_0
 edge_4_9_0_0 edge_4_10_0_0 edge_4_11_0_0 edge_4_12_0_0 edge_4_13_0_0
 edge_4_14_0_0 edge_4_15_0_0 edge_4_16_0_0 edge_4_17_0_0 edge_5_1_0_0
 edge_5_2_0_0 edge_5_3_0_0 edge_5_4_0_0 edge_5_6_0_0 edge_5_7_0_0
 edge_5_8_0_0 edge_5_9_0_0 edge_5_10_0_0 edge_5_11_0_0 edge_5_12_0_0
 edge_5_13_0_0 edge_5_14_0_0 edge_5_15_0_0 edge_5_16_0_0 edge_5_17_0_0
 edge_6_1_0_0 edge_6_2_0_0 edge_6_4_0_0 edge_6_5_0_0 edge_6_9_0_0
 edge_7_1_0_0 edge_7_2_0_0 edge_7_3_0_0 edge_7_4_0_0 edge_7_5_0_0
 edge_7_6_0_0 edge_7_8_0_0 edge_7_9_0_0 edge_7_10_0_0 edge_7_11_0_0
 edge_7_12_0_0 edge_7_13_0_0 edge_7_15_0_0 edge_7_16_0_0 edge_7_17_0_0
 edge_8_1_0_0 edge_8_5_0_0 edge_8_7_0_0 edge_8_9_0_0 edge_8_10_0_0
 edge_8_11_0_0 edge_8_12_0_0 edge_8_15_0_0 edge_9_1_0_0 edge_9_2_0_0
 edge_9_3_0_0 edge_9_4_0_0 edge_9_5_0_0 edge_9_6_0_0 edge_9_7_0_0
 edge_9_8_0_0 edge_9_10_0_0 edge_9_11_0_0 edge_9_12_0_0 edge_9_13_0_0
 edge_9_14_0_0 edge_9_15_0_0 edge_9_16_0_0 edge_9_17_0_0 edge_10_1_0_0
 edge_10_4_0_0 edge_10_5_0_0 edge_10_6_0_0 edge_10_7_0_0 edge_10_8_0_0
 edge_10_9_0_0 edge_10_11_0_0 edge_10_12_0_0 edge_10_13_0_0 edge_10_14_0_0
 edge_11_8_0_0 edge_11_10_0_0 edge_11_12_0_0 edge_11_13_0_0 edge_11_14_0_0
 edge_11_15_0_0 edge_11_16_0_0 edge_12_2_0_0 edge_12_3_0_0 edge_12_7_0_0
 edge_12_8_0_0 edge_12_9_0_0 edge_12_10_0_0 edge_12_11_0_0 edge_12_13_0_0
 edge_12_14_0_0 edge_12_15_0_0 edge_12_16_0_0 edge_12_17_0_0 edge_13_1_0_0
 edge_13_2_0_0 edge_13_3_0_0 edge_13_4_0_0 edge_13_5_0_0 edge_13_6_0_0
 edge_13_7_0_0 edge_13_8_0_0 edge_13_9_0_0 edge_13_10_0_0 edge_13_11_0_0
 edge_13_12_0_0 edge_13_14_0_0 edge_13_15_0_0 edge_13_16_0_0 edge_13_17_0_0
 edge_14_12_0_0 edge_14_15_0_0 edge_14_16_0_0 edge_14_17_0_0 edge_15_12_0_0
 edge_15_14_0_0 edge_15_16_0_0 edge_15_17_0_0 edge_16_1_0_0 edge_16_2_0_0
 edge_16_3_0_0 edge_16_4_0_0 edge_16_5_0_0 edge_16_6_0_0 edge_16_7_0_0
 edge_16_8_0_0 edge_16_9_0_0 edge_16_10_0_0 edge_16_11_0_0 edge_16_12_0_0
 edge_16_13_0_0 edge_16_14_0_0 edge_16_15_0_0 edge_16_17_0_0 edge_17_15_0_0
 edge_17_16_0_0
End
